26211.0
0 0 1 0 1 0 0 0 1 0 0 0 1 1 0 0 1 1 1 1 0 0 0 1 1 1 0 0 1 0 


2 4 6 29 47 61 87 94 126 145 156 163 169 175 180 182 190 191 

10 28 32 43 60 84 104 106 111 124 167 174 178 193 



36 37 41 44 54 57 63 73 76 78 82 115 119 120 133 135 154 171 179 185 198 



5 35 42 55 71 97 113 114 127 140 142 184 186 195 
12 13 16 17 46 64 85 95 109 136 137 158 159 160 168 170 177 


21 33 39 51 53 79 101 108 125 147 157 181 189 197 
49 67 81 98 118 122 129 139 151 153 173 176 188 
0 8 15 20 25 40 58 62 70 103 112 141 148 165 
1 27 30 31 45 48 72 86 91 110 123 128 172 183 192 199 



22 24 66 74 75 77 80 134 152 162 164 166 187 
3 18 19 23 26 38 50 52 88 105 107 131 146 150 161 
56 59 65 69 83 89 92 93 102 117 121 132 143 144 149 194 196 


7 9 11 14 34 68 90 96 99 100 116 130 138 155 

